=1
=2
=0IBM ILOG CPLEX   42.1.0 cb854401 Feb 1, 2023           LEG x86 64bit/Linux    
=1
--- GAMS/Cplex licensed for continuous and discrete problems.
=2
=C
=1
=CReading parameter(s) from "/storage/home/ejm6426/scratch/scRBA/parameterization/kapp/datasets/Yu2021_chemoClimNH4_010_using_rtRBA_methods/min_flux_violation/cplex.opt"
=C>>  optcr = 1E-12
=C>>  optca = 1E-12
=C>>  eprhs = 1E-9
=C>> 
=CFinished reading from "/storage/home/ejm6426/scratch/scRBA/parameterization/kapp/datasets/Yu2021_chemoClimNH4_010_using_rtRBA_methods/min_flux_violation/cplex.opt"
=2
=C
=1
--- GMO setup time: 0.00s
=2
=1
--- Space for names approximately 0.48 Mb
=2
=1
--- Use option 'names no' to turn use of names off
=2
=1
--- GMO memory 5.75 Mb (peak 5.83 Mb)
=2
=1
--- Dictionary memory 0.00 Mb
=2
=1
--- Cplex 22.1.1.0 link memory 0.25 Mb (peak 1.91 Mb)
=2
=1
--- Starting Cplex
=2
=C
Version identifier: 22.1.1.0 | 2022-11-28 | 9160aff4d
CPXPARAM_Advance                                 2
CPXPARAM_Threads                                 1
CPXPARAM_MIP_Display                             4
CPXPARAM_MIP_Pool_Capacity                       0
CPXPARAM_Simplex_Limits_Iterations               1000000
CPXPARAM_Simplex_Tolerances_Feasibility          1.0000000000000001e-09
CPXPARAM_TimeLimit                               1000
CPXPARAM_MIP_Tolerances_AbsMIPGap                9.9999999999999998e-13
CPXPARAM_MIP_Tolerances_MIPGap                   9.9999999999999998e-13
Tried aggregator 1 time.
LP Presolve eliminated 2949 rows and 8159 columns.
Aggregator did 722 substitutions.
Reduced LP has 754 rows, 1801 columns, and 21028 nonzeros.
Presolve time = 0.02 sec. (17.27 ticks)

Iteration log . . .
Iteration:     1    Scaled infeas =       8237723.829887
Iteration:  1953    Scaled infeas =       1490139.682968
Switched to devex.
Iteration:  2639    Scaled infeas =       1197658.146867
Iteration:  2894    Scaled infeas =        573008.626047
Iteration:  3197    Scaled infeas =           599.835707
Iteration:  3363    Scaled infeas =            49.464981
Iteration:  3472    Scaled infeas =            39.658885
Iteration:  3558    Scaled infeas =            11.417093
Iteration:  3649    Scaled infeas =             5.483000
Iteration:  3772    Scaled infeas =             1.280818
Iteration:  3926    Scaled infeas =             0.200954
Switched to steepest-edge.
Iteration:  4016    Objective     =       2000939.837212
=C
=1
--- LP status (1): optimal.
=2
=1
--- Cplex Time: 0.20sec (det. 169.92 ticks)

=2
=C
=COptimal solution found
=CObjective:          109.156559
=C
